NAME: random-26-2315
TYPE: TSP
COMMENT: size=26 seed=2315
DIMENSION: 54
EDGE_WEIGHT_TYPE: EUC_2D
NODE_COORD_SECTION
+0 205 747
-0 205 747
+1 199 298
-1 484 133
+2 661 874
-2 711 281
+3 799 470
-3 324 223
+4 214 636
-4 711 142
+5 443 152
-5 474 464
+6 574 202
-6 21 659
+7 979 444
-7 326 882
+8 551 582
-8 662 322
+9 177 38
-9 167 900
+10 168 402
-10 11 472
+11 99 979
-11 906 609
+12 853 985
-12 537 260
+13 170 868
-13 763 255
+14 538 274
-14 662 865
+15 612 741
-15 770 74
+16 567 174
-16 203 650
+17 302 905
-17 997 832
+18 298 690
-18 253 885
+19 679 435
-19 861 134
+20 573 980
-20 843 144
+21 32 746
-21 587 947
+22 554 991
-22 487 22
+23 711 194
-23 784 464
+24 949 799
-24 889 593
+25 594 854
-25 757 256
+26 470 789
-26 276 883
PRECEDENCE_SECTION
+0 -0
+1 -1
+2 -2
+3 -3
+4 -4
+5 -5
+6 -6
+7 -7
+8 -8
+9 -9
+10 -10
+11 -11
+12 -12
+13 -13
+14 -14
+15 -15
+16 -16
+17 -17
+18 -18
+19 -19
+20 -20
+21 -21
+22 -22
+23 -23
+24 -24
+25 -25
+26 -26
EOF
